% File represents an instance of a Composite Structure problem to be solved by a CP framework
% Created on 2025-03-26 10:41:28.653
T = 56;
n = 25;
m = 40;
edges = [(1, 2),
(7, 6),
(12, 11),
(17, 16),
(22, 21),
(3, 2),
(8, 7),
(13, 12),
(18, 17),
(22, 23),
(4, 3),
(9, 8),
(13, 14),
(18, 19),
(24, 23),
(4, 5),
(9, 10),
(15, 14),
(20, 19),
(24, 25),
(1, 6),
(11, 6),
(16, 11),
(21, 16),
(7, 2),
(12, 7),
(17, 12),
(22, 17),
(8, 3),
(13, 8),
(18, 13),
(18, 23),
(9, 4),
(9, 14),
(19, 14),
(24, 19),
(10, 5),
(15, 10),
(20, 15),
(20, 25)];
counts = [|12, 12, 12, 6,
|12, 10, 12, 2,
|12, 16, 12, 2,
|12, 16, 12, 4,
|12, 16, 12, 2,
|12, 10, 12, 2,
|12, 16, 12, 2,
|12, 22, 12, 2,
|12, 22, 12, 4,
|12, 20, 12, 2,
|12, 14, 12, 2,
|14, 16, 14, 2,
|14, 22, 14, 2,
|12, 20, 12, 2,
|12, 22, 12, 2,
|14, 14, 14, 2,
|14, 16, 14, 4,
|14, 22, 14, 4,
|14, 22, 14, 2,
|14, 24, 14, 2,
|14, 18, 14, 2,
|14, 20, 14, 6,
|14, 18, 14, 4,
|14, 22, 14, 6,
|14, 22, 14, 2|];
